[2026-03-24T14:28:41.152Z] Pipeline "set_vm-3-t1_vm-3-t1_s014_g003" → 2026_03_24_14_28_41_set_vm-3-t1_vm-3-t1_s014_g003_max.sol
Set parameter Username
Set parameter LicenseID to value 2796068
Set parameter LogFile to value "gurobi.log"
Using license file /opt/gurobi/gurobi.lic
Academic license - for non-commercial use only - expires 2027-03-23

Gurobi Optimizer version 13.0.1 build v13.0.1rc0 (linux64 - "Ubuntu 24.04.4 LTS")
Copyright (c) 2026, Gurobi Optimization, LLC

Warning: Duplicate section found (read 'binary') - Is a variable name equal to an LP file format keyword?
Warning: Duplicate section found (read 'binary') - Is a variable name equal to an LP file format keyword?
Warning: Duplicate section found (read 'binary') - Is a variable name equal to an LP file format keyword?
Warning: Duplicate section found (read 'binary') - Is a variable name equal to an LP file format keyword?
Warning: Duplicate section found (read 'binary') - Is a variable name equal to an LP file format keyword?
Warning: Duplicate section found (read 'binary') - Is a variable name equal to an LP file format keyword?
Warning: Duplicate section found (read 'binary') - Is a variable name equal to an LP file format keyword?
Warning: Duplicate section found (read 'binary') - Is a variable name equal to an LP file format keyword?
Warning: Duplicate section found (read 'binary') - Is a variable name equal to an LP file format keyword?
Warning: Duplicate section found (read 'binary') - Is a variable name equal to an LP file format keyword?
Warning: Further warnings of this type will be omitted.
Read LP format model from file /root/bgw/data/uploads/2026_03_24_14_28_41_set_vm-3-t1_vm-3-t1_s014_g003_max.lp
Reading time = 0.00 seconds
: 4582 rows, 401 columns, 13820 nonzeros

Using Gurobi shared library /opt/gurobi1301/linux64/lib/libgurobi.so.13.0.1

CPU model: AMD EPYC-Genoa Processor, instruction set [SSE2|AVX|AVX2|AVX512]
Thread count: 16 physical cores, 16 logical processors, using up to 16 threads

Optimize a model with 4582 rows, 401 columns and 13820 nonzeros (Max)
Model fingerprint: 0x416aa68f
Model has 26 linear objective coefficients
Variable types: 50 continuous, 351 integer (351 binary)
Coefficient statistics:
  Matrix range     [1e+00, 2e+01]
  Objective range  [1e+00, 1e+00]
  Bounds range     [1e+00, 1e+00]
  RHS range        [1e+00, 3e+01]

Found heuristic solution: objective 26.0000000
Presolve removed 485 rows and 96 columns
Presolve time: 0.01s
Presolved: 4097 rows, 305 columns, 12480 nonzeros
Variable types: 0 continuous, 305 integer (296 binary)
Found heuristic solution: objective 40.0000000

Root relaxation: objective 1.320000e+02, 392 iterations, 0.02 seconds (0.03 work units)

    Nodes    |    Current Node    |     Objective Bounds      |     Work
 Expl Unexpl |  Obj  Depth IntInf | Incumbent    BestBd   Gap | It/Node Time

     0     0  132.00000    0   43   40.00000  132.00000   230%     -    0s
H    0     0                      42.0000000  132.00000   214%     -    0s
H    0     0                      49.0000000  132.00000   169%     -    0s
H    0     0                      53.0000000  132.00000   149%     -    0s
H    0     0                      60.0000000  132.00000   120%     -    0s
H    0     0                      66.0000000  132.00000   100%     -    0s
     0     0  132.00000    0   48   66.00000  132.00000   100%     -    0s
     0     0  132.00000    0   48   66.00000  132.00000   100%     -    0s
     0     0  132.00000    0   41   66.00000  132.00000   100%     -    0s
     0     0  132.00000    0   40   66.00000  132.00000   100%     -    0s
H    0     0                      69.0000000  132.00000  91.3%     -    0s
     0     0  132.00000    0   42   69.00000  132.00000  91.3%     -    0s
     0     0  132.00000    0   41   69.00000  132.00000  91.3%     -    0s
     0     0  131.54545    0   43   69.00000  131.54545  90.6%     -    0s
     0     0  131.54545    0   42   69.00000  131.54545  90.6%     -    0s
     0     0  129.00000    0   45   69.00000  129.00000  87.0%     -    0s
     0     0  129.00000    0   41   69.00000  129.00000  87.0%     -    0s
     0     0  129.00000    0   48   69.00000  129.00000  87.0%     -    0s
     0     0  129.00000    0   44   69.00000  129.00000  87.0%     -    0s
     0     0  129.00000    0   44   69.00000  129.00000  87.0%     -    0s
     0     0  129.00000    0   41   69.00000  129.00000  87.0%     -    0s
     0     2  129.00000    0   41   69.00000  129.00000  87.0%     -    0s
  6366  1637   72.63636   33   24   69.00000  110.42424  60.0%  82.5    5s
 22843  2270   80.00000   42   63   69.00000   80.00000  15.9%  77.4   10s
 41340  3219     cutoff   49        69.00000   80.00000  15.9%  72.1   15s
 61245  1577   73.86364   45   26   69.00000   80.00000  15.9%  69.8   20s

Explored 67991 nodes (4661314 simplex iterations) in 21.00 seconds (48.41 work units)
Thread count was 16 (of 16 available processors)

Solution count 10: 69 69 69 ... 53

Optimal solution found (tolerance 1.00e-04)
Best objective 6.900000000000e+01, best bound 6.900000000000e+01, gap 0.0000%

Wrote result file '/root/bgw/data/results/2026_03_24_14_28_41_set_vm-3-t1_vm-3-t1_s014_g003_max.sol'

